============================[ Problem Statistics ]=============================|                                                                             ||  Number of variables:          4242                                         ||  Number of clauses:           10301                                         ||  Parse time:                   0.70 s                                       ||                                                                             |============================[ Search Statistics ]==============================| Conflicts |          ORIGINAL         |          LEARNT          | Progress ||           |    Vars  Clauses Literals |    Limit  Clauses Lit/Cl |          |===============================================================================|       100 |    1591     6506  1098447 |     2385      100     53 | 62.501 % ||       250 |    1591     6506  1098447 |     2624      250     75 | 62.495 % |===============================================================================restarts              : 3conflicts             : 375            (356 /sec)decisions             : 640            (0.00 % random) (607 /sec)propagations          : 12005          (11390 /sec)conflict literals     : 30810          (94.58 % deleted)CPU time              : 1.054 sSATISFIABLE